\ Model _copy
\ LP format - for model browsing. Use MPS format to capture full model detail.
Minimize
 
Subject To
 gas_balance_rt(ng101,s2,t22): gshed(ng101,s2,t22) + gprodUp(gw1,s2,t22)
   - gprodDn(gw1,s2,t22) + gprodUp(gw2,s2,t22) - gprodDn(gw2,s2,t22)
   = -194.7248580959999
 gprodDn_max(gw1,s2,t22): gprodDn(gw1,s2,t22) <= 160
 SOS1_gprodDn_max(gw2,s2,t22): gprodDn(gw2,s2,t22)
   + SOS1_gprodDn_max(gw2,s2,t22) = 0
Bounds
 gprodDn(gw1,s2,t22) free
 gprodDn(gw2,s2,t22) free
End
